Question1.log
CPLEX 20.1.0.0: 
<BREAK> (cplex)
aborted, integer solution exists; objective 176
39431 MIP simplex iterations
85 branch-and-bound nodes
absmipgap = 79.4235, relmipgap = 0.45127
No basis.
s [*,*]
:    p1  p2  p3  p4  p5    :=
s1    0   0   1   0   0
s10   0   1   0   0   0
s11   1   0   0   0   0
s12   1   0   0   0   0
s13   0   0   1   0   0
s14   0   0   0   1   0
s15   0   1   0   0   0
s16   1   0   0   0   0
s17   0   1   0   0   0
s18   0   0   0   1   0
s19   0   0   0   1   0
s2    0   0   1   0   0
s20   1   0   0   0   0
s21   0   0   1   0   0
s22   0   0   0   0   1
s23   0   0   0   1   0
s24   0   0   0   1   0
s25   1   0   0   0   0
s26   1   0   0   0   0
s27   0   1   0   0   0
s28   1   0   0   0   0
s29   0   0   0   1   0
s3    0   0   1   0   0
s30   0   0   0   0   1
s31   0   0   0   0   1
s32   1   0   0   0   0
s33   0   0   0   0   1
s34   0   1   0   0   0
s35   0   1   0   0   0
s36   0   1   0   0   0
s37   0   0   1   0   0
s38   0   0   0   0   1
s39   0   0   0   0   1
s4    0   0   1   0   0
s40   0   0   0   1   0
s5    0   0   1   0   0
s6    0   1   0   0   0
s7    0   0   0   1   0
s8    0   0   0   0   1
s9    0   0   0   0   1
;

gender_proportion = 176

